30	100	100	100
27	12	1
97	17	16
15	42	42
55	7	56
51	72	20
32	10	87
34	99	17
43	99	2
69	29	11
76	42	44
21	26	13
28	80	57
30	54	57
98	59	57
90	44	19
69	85	39
63	65	42
35	63	25
51	34	70
39	72	99
44	73	5
47	67	60
25	81	6
75	91	97
64	42	81
2	54	97
79	6	59
73	37	49
36	20	91
12	91	76
